sat
(:added-eqs                       24049
 :arith-eq-adapter                3534
 :arith-bound-propagations-lp     153
 :arith-conflicts                 1529
 :arith-diseq                     430
 :arith-fixed-eqs                 438
 :arith-gcd-calls                 4
 :arith-horner-calls              43
 :arith-horner-cross-nested-forms 7890
 :arith-lower                     5419
 :arith-make-feasible             2124
 :arith-max-columns               14203
 :arith-max-rows                  5740
 :arith-nla-add-bounds            133
 :arith-nla-lemmas                910
 :arith-nla-propagate-bounds      558
 :arith-nla-propagate-eq          23177
 :arith-nra-calls                 8
 :arith-offset-eqs                1977
 :arith-patches                   4
 :arith-patches-success           4
 :arith-upper                     6974
 :binary-propagations             45890
 :card2bv-rewrites                2
 :cnf-encoding-aux-vars           156
 :conflicts                       131
 :decisions                       29490
 :del-clause                      658
 :elim-unconstrained              899
 :final-checks                    333
 :max-memory                      160.87
 :memory                          100.83
 :minimized-lits                  1
 :mk-bool-var                     19139
 :mk-clause                       4462
 :mk-clause-binary                51697
 :nlsat-conflicts                 3178
 :nlsat-decisions                 2564
 :nlsat-propagations              728567
 :nlsat-restarts                  3
 :nlsat-stages                    216261
 :num-allocs                      33025707147.00
 :num-checks                      1
 :propagations                    48621
 :restarts                        1
 :rlimit-count                    10622865
 :solve-eqs-elim-vars             759
 :solve-eqs-steps                 7226
 :time                            4.53
 :total-time                      4.58)
